(set-logic ALL)
(declare-const z_random0_0 String)
(declare-const z_random1_0 String)
(declare-const z_random1_1 String)
(declare-const z_random1_2 String)
(declare-const z_random1_3 String)
(declare-const z_random1_4 String)
(declare-const z_random1_5 String)
(declare-const z_random1_6 String)
(declare-const z_random1_7 String)
(declare-const z_random1_8 String)
(declare-const z_random1_9 String)
(declare-const z_random1_10 String)
(declare-const z_random1_11 String)
(declare-const z_random1_12 String)
(declare-const z_random1_13 String)
(declare-const z_random1_14 String)
(declare-const z_random1_15 String)
(declare-const z_random1_16 String)
(declare-const z_random1_17 String)
(declare-fun seed0_x () String)
(declare-fun seed1_x () String)
(assert (and (not (= (str.in_re (str.substr z_random1_13 0 (str.len seed0_x)) (re.++ (re.* re.allchar ) re.allchar  (re.* re.allchar ) (str.to_re (str.substr z_random1_17 0 (str.len (str.++ "B" "C")))) (re.* re.allchar ) (str.to_re (str.substr z_random1_4 0 (str.len (str.++ "A" "B")))) (re.* re.allchar ))) (str.in_re (str.substr z_random1_16 0 (str.len seed0_x)) (re.++ (re.* re.allchar ) re.allchar  (re.* re.allchar ) (str.to_re "B") (re.* re.allchar ) (str.to_re (str.++ "C" (str.substr z_random1_14 0 (str.len (str.++ "A" "B"))))) (re.* re.allchar ))))) (not (= (str.in_re (str.substr z_random1_14 (str.indexof z_random1_14 seed1_x (str.len (str.++ "A" "B"))) (str.len seed1_x)) (re.++ (re.* re.allchar ) re.allchar  (re.* re.allchar ) (str.to_re (str.++ "B" (str.substr z_random1_15 (str.indexof z_random1_15 (str.++ "A" "C") (str.len (str.++ "B" "C"))) (str.len (str.++ "A" "C"))))) (re.* re.allchar ) (str.to_re "B") (re.* re.allchar ))) (str.in_re (str.substr z_random1_16 (str.indexof z_random1_16 seed1_x (str.len seed0_x)) (str.len seed1_x)) (re.++ (re.* re.allchar ) re.allchar  (re.* re.allchar ) (str.to_re "B") (re.* re.allchar ) (str.to_re (str.++ "A" (str.substr z_random1_17 (str.indexof z_random1_17 (str.++ "C" "B") (str.len (str.++ "B" "C"))) (str.len (str.++ "C" "B"))))) (re.* re.allchar )))))))
(check-sat)
(exit)